NAME: instance_2649
TYPE: TSP
DIMENSION: 20
EDGE_WEIGHT_TYPE: EUC_2D
NODE_COORD_SECTION
0 76.38 37.40
1 46.42 39.45
2 4.76 51.93
3 94.58 7.99
4 48.93 40.82
5 78.10 68.69
6 50.42 7.27
7 51.91 62.88
8 99.48 33.79
9 13.25 94.41
10 50.89 98.89
11 36.03 57.21
12 31.41 84.87
13 53.03 33.39
14 75.51 42.80
15 23.59 23.67
16 55.45 14.43
17 37.40 89.76
18 13.78 85.66
19 49.46 17.84
EOF
